; benchmark generated from python API
(set-info :status unknown)
(define-funs-rec ( ( T2_11 ((x!1 Int)) Int)
                   ( p2_11 ((x!1 Int)) Int)
                   ( ilog2_2_11 ((x!1 Int)) Int)
                   ( T2_06 ((x!1 Int)) Int)
                   ( p2_06 ((x!1 Int)) Int))
                 ( (+ (- 1 ((_ p2_11 0) (+ x!1 1))) ((_ p2_11 0) x!1))
                   (let ((a!1 (* (mod ((_ ilog2_2_11 0) (+ x!1 1)) 2)
                                 (mod x!1 2))))
                     (+ (div x!1 2) a!1))
                   (ite (<= x!1 1) 0 (+ 1 ((_ ilog2_2_11 0) (div x!1 2))))
                   ((_ p2_06 0) x!1)
                   (let ((a!1 (mod (- x!1 ((_ p2_06 0) (div x!1 2))) 2)))
                     (ite (= x!1 0) 0 a!1))))
(assert
 (forall ((n Int) )(let ((?x379 ((_ T2_11 0) n)))
(let ((?x356 ((_ T2_06 0) n)))
(let (($x322 (= ?x356 ?x379)))
(let (($x358 (>= n 0)))
(=> $x358 $x322))))))
)
(check-sat)
